p cnf 901 2355
a 1 2 3 4 5 6 7 8 9 10 11 12 13 14 15 16 17 18 19 20 21 22 23 24 25 26 27 28 29 30 31 32 33 34 35 36 37 38 39 40 41 42 43 44 45 46 47 48 49 50 51 52 53 54 55 56 57 58 59 60 61 62 63 64 65 66 67 68 69 70 71 72 73 74 75 76 77 78 79 80 81 82 83 84 85 86 87 88 89 90 91 92 93 94 95 96 0
e 97 98 99 100 101 102 103 104 105 106 107 108 109 110 111 112 113 114 115 116 117 118 119 120 121 122 123 124 125 126 127 128 129 130 131 132 133 134 135 136 137 138 139 140 141 142 143 144 145 146 147 148 149 150 151 152 153 154 155 156 157 158 159 160 161 162 163 164 165 166 167 168 169 170 171 172 173 174 175 176 177 178 179 180 181 182 183 184 185 186 187 188 189 190 191 192 193 194 195 196 197 198 199 200 201 202 203 204 205 206 207 208 209 210 211 212 213 214 215 216 217 218 219 220 221 222 223 224 225 226 227 228 229 230 231 232 233 234 235 236 237 238 239 240 241 242 243 244 245 246 247 248 249 250 251 252 253 254 255 256 257 258 259 260 261 262 263 264 265 266 267 268 269 270 271 272 273 274 275 276 277 278 279 280 281 282 283 284 285 286 287 288 289 290 291 292 293 294 295 296 297 298 299 300 301 302 303 304 305 306 307 308 309 310 311 312 313 314 315 316 317 318 319 320 321 322 323 324 325 326 327 328 329 330 331 332 333 334 335 336 337 338 339 340 341 342 343 344 345 346 347 348 349 350 351 352 353 354 355 356 357 358 359 360 361 362 363 364 365 366 367 368 369 370 371 372 373 374 375 376 377 378 379 380 381 382 383 384 385 386 387 388 389 390 391 392 393 394 395 396 397 398 399 400 401 402 403 404 405 406 407 408 409 410 411 412 413 414 415 416 417 418 419 420 421 422 423 424 425 426 427 428 429 430 431 432 433 434 435 436 437 438 439 440 441 442 443 444 445 446 447 448 449 450 451 452 453 454 455 456 457 458 459 460 461 462 463 464 465 466 467 468 469 470 471 472 473 474 475 476 477 478 479 480 481 482 483 484 485 486 487 488 489 490 491 492 493 494 495 496 497 498 499 500 501 502 503 504 505 506 507 508 509 510 511 512 513 514 515 516 517 518 519 520 521 522 523 524 525 526 527 528 529 530 531 532 533 534 535 536 537 538 539 540 541 542 543 544 545 546 547 548 549 550 551 552 553 554 555 556 557 558 559 560 561 562 563 564 565 566 567 568 569 570 571 572 573 574 575 576 577 578 579 580 581 582 583 584 585 586 587 588 589 590 591 592 593 594 595 596 597 598 599 600 601 602 603 604 605 606 607 608 609 610 611 612 613 614 615 616 617 618 619 620 621 622 623 624 625 626 627 628 629 630 631 632 633 634 635 636 637 638 639 640 641 642 643 644 645 646 647 648 649 650 651 652 653 654 655 656 657 658 659 660 661 662 663 664 665 666 667 668 669 670 671 672 673 674 675 676 677 678 679 680 681 682 683 684 685 686 687 688 689 690 691 692 693 694 695 696 697 698 699 700 701 702 703 704 705 706 707 708 709 710 711 712 713 714 715 716 717 718 719 720 721 722 723 724 725 726 727 728 729 730 731 732 733 734 735 736 737 738 739 740 741 742 743 744 745 746 747 748 749 750 751 752 753 754 755 756 757 758 759 760 761 762 763 764 765 766 767 768 769 770 771 772 773 774 775 776 777 778 779 780 781 782 783 784 785 786 787 788 789 790 791 792 793 794 795 796 797 798 799 800 801 802 803 804 805 806 807 808 809 810 811 812 813 814 815 816 817 818 819 820 821 822 823 824 825 826 827 828 829 830 831 832 833 834 835 836 837 838 839 840 841 842 843 844 845 846 847 848 849 850 851 852 853 854 855 856 857 858 859 860 861 862 863 864 865 866 867 868 869 870 871 872 873 874 875 876 877 878 879 880 881 882 883 884 885 886 887 888 889 890 891 892 893 894 895 896 897 898 899 0
113 -97 0
-113 97 0
114 98 -113 0
114 -98 113 0
-114 98 113 0
-114 -98 -113 0
115 -98 -113 0
-115 113 0
-115 98 0
116 -115 0
-116 115 0
117 99 -116 0
117 -99 116 0
-117 99 116 0
-117 -99 -116 0
118 -99 -116 0
-118 116 0
-118 99 0
119 -118 0
-119 118 0
120 100 -119 0
120 -100 119 0
-120 100 119 0
-120 -100 -119 0
121 -100 -119 0
-121 119 0
-121 100 0
122 -121 0
-122 121 0
123 101 -122 0
123 -101 122 0
-123 101 122 0
-123 -101 -122 0
124 -101 -122 0
-124 122 0
-124 101 0
125 -124 0
-125 124 0
126 102 -125 0
126 -102 125 0
-126 102 125 0
-126 -102 -125 0
127 -102 -125 0
-127 125 0
-127 102 0
128 -127 0
-128 127 0
129 103 -128 0
129 -103 128 0
-129 103 128 0
-129 -103 -128 0
130 -103 -128 0
-130 128 0
-130 103 0
131 -130 0
-131 130 0
132 104 -131 0
132 -104 131 0
-132 104 131 0
-132 -104 -131 0
133 -104 -131 0
-133 131 0
-133 104 0
134 -133 0
-134 133 0
135 105 -134 0
135 -105 134 0
-135 105 134 0
-135 -105 -134 0
136 -105 -134 0
-136 134 0
-136 105 0
137 -136 0
-137 136 0
138 106 -137 0
138 -106 137 0
-138 106 137 0
-138 -106 -137 0
139 -106 -137 0
-139 137 0
-139 106 0
140 -139 0
-140 139 0
141 107 -140 0
141 -107 140 0
-141 107 140 0
-141 -107 -140 0
142 -107 -140 0
-142 140 0
-142 107 0
143 -142 0
-143 142 0
144 108 -143 0
144 -108 143 0
-144 108 143 0
-144 -108 -143 0
145 -108 -143 0
-145 143 0
-145 108 0
146 -145 0
-146 145 0
147 109 -146 0
147 -109 146 0
-147 109 146 0
-147 -109 -146 0
148 -109 -146 0
-148 146 0
-148 109 0
149 -148 0
-149 148 0
150 110 -149 0
150 -110 149 0
-150 110 149 0
-150 -110 -149 0
151 -110 -149 0
-151 149 0
-151 110 0
152 -151 0
-152 151 0
153 111 -152 0
153 -111 152 0
-153 111 152 0
-153 -111 -152 0
154 -111 -152 0
-154 152 0
-154 111 0
155 -154 0
-155 154 0
156 112 -155 0
156 -112 155 0
-156 112 155 0
-156 -112 -155 0
157 -112 -155 0
-157 155 0
-157 112 0
158 -157 0
-158 157 0
159 -97 -114 117 120 123 126 129 132 135 138 141 144 147 150 153 156 0
-159 -156 0
-159 -153 0
-159 -150 0
-159 -147 0
-159 -144 0
-159 -141 0
-159 -138 0
-159 -135 0
-159 -132 0
-159 -129 0
-159 -126 0
-159 -123 0
-159 -120 0
-159 -117 0
-159 114 0
-159 97 0
176 -97 160 0
176 97 -160 0
-176 97 160 0
-176 -97 -160 0
177 -98 161 0
177 98 -161 0
-177 98 161 0
-177 -98 -161 0
178 -99 162 0
178 99 -162 0
-178 99 162 0
-178 -99 -162 0
179 -100 163 0
179 100 -163 0
-179 100 163 0
-179 -100 -163 0
180 -101 164 0
180 101 -164 0
-180 101 164 0
-180 -101 -164 0
181 -102 165 0
181 102 -165 0
-181 102 165 0
-181 -102 -165 0
182 -103 166 0
182 103 -166 0
-182 103 166 0
-182 -103 -166 0
183 -104 167 0
183 104 -167 0
-183 104 167 0
-183 -104 -167 0
184 -105 168 0
184 105 -168 0
-184 105 168 0
-184 -105 -168 0
185 -106 169 0
185 106 -169 0
-185 106 169 0
-185 -106 -169 0
186 -107 170 0
186 107 -170 0
-186 107 170 0
-186 -107 -170 0
187 -108 171 0
187 108 -171 0
-187 108 171 0
-187 -108 -171 0
188 -109 172 0
188 109 -172 0
-188 109 172 0
-188 -109 -172 0
189 -110 173 0
189 110 -173 0
-189 110 173 0
-189 -110 -173 0
190 -111 174 0
190 111 -174 0
-190 111 174 0
-190 -111 -174 0
191 -112 175 0
191 112 -175 0
-191 112 175 0
-191 -112 -175 0
192 176 177 178 179 180 181 182 183 184 185 186 187 188 189 190 191 0
-192 -191 0
-192 -190 0
-192 -189 0
-192 -188 0
-192 -187 0
-192 -186 0
-192 -185 0
-192 -184 0
-192 -183 0
-192 -182 0
-192 -181 0
-192 -180 0
-192 -179 0
-192 -178 0
-192 -177 0
-192 -176 0
225 193 -209 0
225 -193 209 0
-225 193 209 0
-225 -193 -209 0
226 194 -210 0
226 -194 210 0
-226 194 210 0
-226 -194 -210 0
227 195 -211 0
227 -195 211 0
-227 195 211 0
-227 -195 -211 0
228 196 -212 0
228 -196 212 0
-228 196 212 0
-228 -196 -212 0
229 197 -213 0
229 -197 213 0
-229 197 213 0
-229 -197 -213 0
230 198 -214 0
230 -198 214 0
-230 198 214 0
-230 -198 -214 0
231 199 -215 0
231 -199 215 0
-231 199 215 0
-231 -199 -215 0
232 200 -216 0
232 -200 216 0
-232 200 216 0
-232 -200 -216 0
233 201 -217 0
233 -201 217 0
-233 201 217 0
-233 -201 -217 0
234 202 -218 0
234 -202 218 0
-234 202 218 0
-234 -202 -218 0
235 203 -219 0
235 -203 219 0
-235 203 219 0
-235 -203 -219 0
236 204 -220 0
236 -204 220 0
-236 204 220 0
-236 -204 -220 0
237 205 -221 0
237 -205 221 0
-237 205 221 0
-237 -205 -221 0
238 206 -222 0
238 -206 222 0
-238 206 222 0
-238 -206 -222 0
239 207 -223 0
239 -207 223 0
-239 207 223 0
-239 -207 -223 0
240 208 -224 0
240 -208 224 0
-240 208 224 0
-240 -208 -224 0
241 225 226 227 228 229 230 231 232 233 234 235 236 237 238 239 240 0
-241 -240 0
-241 -239 0
-241 -238 0
-241 -237 0
-241 -236 0
-241 -235 0
-241 -234 0
-241 -233 0
-241 -232 0
-241 -231 0
-241 -230 0
-241 -229 0
-241 -228 0
-241 -227 0
-241 -226 0
-241 -225 0
274 242 -258 0
274 -242 258 0
-274 242 258 0
-274 -242 -258 0
275 243 -259 0
275 -243 259 0
-275 243 259 0
-275 -243 -259 0
276 244 -260 0
276 -244 260 0
-276 244 260 0
-276 -244 -260 0
277 245 -261 0
277 -245 261 0
-277 245 261 0
-277 -245 -261 0
278 246 -262 0
278 -246 262 0
-278 246 262 0
-278 -246 -262 0
279 247 -263 0
279 -247 263 0
-279 247 263 0
-279 -247 -263 0
280 248 -264 0
280 -248 264 0
-280 248 264 0
-280 -248 -264 0
281 249 -265 0
281 -249 265 0
-281 249 265 0
-281 -249 -265 0
282 250 -266 0
282 -250 266 0
-282 250 266 0
-282 -250 -266 0
283 251 -267 0
283 -251 267 0
-283 251 267 0
-283 -251 -267 0
284 252 -268 0
284 -252 268 0
-284 252 268 0
-284 -252 -268 0
285 253 -269 0
285 -253 269 0
-285 253 269 0
-285 -253 -269 0
286 254 -270 0
286 -254 270 0
-286 254 270 0
-286 -254 -270 0
287 255 -271 0
287 -255 271 0
-287 255 271 0
-287 -255 -271 0
288 256 -272 0
288 -256 272 0
-288 256 272 0
-288 -256 -272 0
289 257 -273 0
289 -257 273 0
-289 257 273 0
-289 -257 -273 0
290 274 275 276 277 278 279 280 281 282 283 284 285 286 287 288 289 0
-290 -289 0
-290 -288 0
-290 -287 0
-290 -286 0
-290 -285 0
-290 -284 0
-290 -283 0
-290 -282 0
-290 -281 0
-290 -280 0
-290 -279 0
-290 -278 0
-290 -277 0
-290 -276 0
-290 -275 0
-290 -274 0
291 -97 0
-291 97 0
292 -98 -291 0
-292 291 0
-292 98 0
293 -292 0
-293 292 0
294 -99 -293 0
-294 293 0
-294 99 0
295 -293 0
295 -294 0
295 -99 0
-295 99 293 294 0
296 -100 -295 0
-296 295 0
-296 100 0
297 -295 0
297 -296 0
297 -100 0
-297 100 295 296 0
298 -101 -297 0
-298 297 0
-298 101 0
299 -297 0
299 -298 0
299 -101 0
-299 101 297 298 0
300 -102 -299 0
-300 299 0
-300 102 0
301 -299 0
301 -300 0
301 -102 0
-301 102 299 300 0
302 -103 -301 0
-302 301 0
-302 103 0
303 -301 0
303 -302 0
303 -103 0
-303 103 301 302 0
304 -104 -303 0
-304 303 0
-304 104 0
305 -303 0
305 -304 0
305 -104 0
-305 104 303 304 0
306 -105 -305 0
-306 305 0
-306 105 0
307 -305 0
307 -306 0
307 -105 0
-307 105 305 306 0
308 -106 -307 0
-308 307 0
-308 106 0
309 -307 0
309 -308 0
309 -106 0
-309 106 307 308 0
310 -107 -309 0
-310 309 0
-310 107 0
311 -309 0
311 -310 0
311 -107 0
-311 107 309 310 0
312 -108 -311 0
-312 311 0
-312 108 0
313 -311 0
313 -312 0
313 -108 0
-313 108 311 312 0
314 -109 -313 0
-314 313 0
-314 109 0
315 -313 0
315 -314 0
315 -109 0
-315 109 313 314 0
316 -110 -315 0
-316 315 0
-316 110 0
317 -315 0
317 -316 0
317 -110 0
-317 110 315 316 0
318 -111 -317 0
-318 317 0
-318 111 0
319 -317 0
319 -318 0
319 -111 0
-319 111 317 318 0
320 -112 -319 0
-320 319 0
-320 112 0
321 -319 0
321 -320 0
321 -112 0
-321 112 319 320 0
322 -112 -321 0
322 112 321 0
-322 -112 321 0
-322 112 -321 0
324 0
-324 -322 -323 0
325 211 0
-325 -211 0
326 -212 -325 0
326 212 325 0
-326 -212 325 0
-326 212 -325 0
327 212 -325 0
-327 325 0
-327 -212 0
328 -327 0
-328 327 0
329 -213 -328 0
329 213 328 0
-329 -213 328 0
-329 213 -328 0
330 213 -328 0
-330 328 0
-330 -213 0
331 -330 0
-331 330 0
332 -214 -331 0
332 214 331 0
-332 -214 331 0
-332 214 -331 0
333 214 -331 0
-333 331 0
-333 -214 0
334 -333 0
-334 333 0
335 -215 -334 0
335 215 334 0
-335 -215 334 0
-335 215 -334 0
336 215 -334 0
-336 334 0
-336 -215 0
337 -336 0
-337 336 0
338 -216 -337 0
338 216 337 0
-338 -216 337 0
-338 216 -337 0
339 216 -337 0
-339 337 0
-339 -216 0
340 -339 0
-340 339 0
341 -217 -340 0
341 217 340 0
-341 -217 340 0
-341 217 -340 0
342 217 -340 0
-342 340 0
-342 -217 0
343 -342 0
-343 342 0
344 -218 -343 0
344 218 343 0
-344 -218 343 0
-344 218 -343 0
345 218 -343 0
-345 343 0
-345 -218 0
346 -345 0
-346 345 0
347 -219 -346 0
347 219 346 0
-347 -219 346 0
-347 219 -346 0
348 219 -346 0
-348 346 0
-348 -219 0
349 -348 0
-349 348 0
350 -220 -349 0
350 220 349 0
-350 -220 349 0
-350 220 -349 0
351 220 -349 0
-351 349 0
-351 -220 0
352 -351 0
-352 351 0
353 -221 -352 0
353 221 352 0
-353 -221 352 0
-353 221 -352 0
354 221 -352 0
-354 352 0
-354 -221 0
355 -354 0
-355 354 0
356 -222 -355 0
356 222 355 0
-356 -222 355 0
-356 222 -355 0
357 222 -355 0
-357 355 0
-357 -222 0
358 -357 0
-358 357 0
359 -223 -358 0
359 223 358 0
-359 -223 358 0
-359 223 -358 0
360 223 -358 0
-360 358 0
-360 -223 0
361 -360 0
-361 360 0
362 -224 -361 0
362 224 361 0
-362 -224 361 0
-362 224 -361 0
363 224 -361 0
-363 361 0
-363 -224 0
364 -363 0
-364 363 0
365 -224 -364 0
365 224 364 0
-365 -224 364 0
-365 224 -364 0
366 -362 0
366 -359 0
366 -356 0
366 -353 0
366 -350 0
366 -347 0
366 -344 0
366 -341 0
366 -338 0
366 -335 0
366 -332 0
366 -329 0
366 -326 0
366 -211 0
366 210 0
366 209 0
-366 -209 -210 211 326 329 332 335 338 341 344 347 350 353 356 359 362 0
367 366 0
367 -365 0
-367 365 -366 0
369 0
-369 367 -368 0
370 1 -160 0
370 -1 160 0
-370 1 160 0
-370 -1 -160 0
371 2 -161 0
371 -2 161 0
-371 2 161 0
-371 -2 -161 0
372 3 -162 0
372 -3 162 0
-372 3 162 0
-372 -3 -162 0
373 4 -163 0
373 -4 163 0
-373 4 163 0
-373 -4 -163 0
374 5 -164 0
374 -5 164 0
-374 5 164 0
-374 -5 -164 0
375 6 -165 0
375 -6 165 0
-375 6 165 0
-375 -6 -165 0
376 7 -166 0
376 -7 166 0
-376 7 166 0
-376 -7 -166 0
377 8 -167 0
377 -8 167 0
-377 8 167 0
-377 -8 -167 0
378 9 -168 0
378 -9 168 0
-378 9 168 0
-378 -9 -168 0
379 10 -169 0
379 -10 169 0
-379 10 169 0
-379 -10 -169 0
380 11 -170 0
380 -11 170 0
-380 11 170 0
-380 -11 -170 0
381 12 -171 0
381 -12 171 0
-381 12 171 0
-381 -12 -171 0
382 13 -172 0
382 -13 172 0
-382 13 172 0
-382 -13 -172 0
383 14 -173 0
383 -14 173 0
-383 14 173 0
-383 -14 -173 0
384 15 -174 0
384 -15 174 0
-384 15 174 0
-384 -15 -174 0
385 16 -175 0
385 -16 175 0
-385 16 175 0
-385 -16 -175 0
386 370 371 372 373 374 375 376 377 378 379 380 381 382 383 384 385 0
-386 -385 0
-386 -384 0
-386 -383 0
-386 -382 0
-386 -381 0
-386 -380 0
-386 -379 0
-386 -378 0
-386 -377 0
-386 -376 0
-386 -375 0
-386 -374 0
-386 -373 0
-386 -372 0
-386 -371 0
-386 -370 0
387 -49 50 51 52 53 54 55 56 57 58 59 60 61 62 63 64 0
-387 -64 0
-387 -63 0
-387 -62 0
-387 -61 0
-387 -60 0
-387 -59 0
-387 -58 0
-387 -57 0
-387 -56 0
-387 -55 0
-387 -54 0
-387 -53 0
-387 -52 0
-387 -51 0
-387 -50 0
-387 49 0
388 17 -193 0
388 -17 193 0
-388 17 193 0
-388 -17 -193 0
389 18 -194 0
389 -18 194 0
-389 18 194 0
-389 -18 -194 0
390 19 -195 0
390 -19 195 0
-390 19 195 0
-390 -19 -195 0
391 20 -196 0
391 -20 196 0
-391 20 196 0
-391 -20 -196 0
392 21 -197 0
392 -21 197 0
-392 21 197 0
-392 -21 -197 0
393 22 -198 0
393 -22 198 0
-393 22 198 0
-393 -22 -198 0
394 23 -199 0
394 -23 199 0
-394 23 199 0
-394 -23 -199 0
395 24 -200 0
395 -24 200 0
-395 24 200 0
-395 -24 -200 0
396 25 -201 0
396 -25 201 0
-396 25 201 0
-396 -25 -201 0
397 26 -202 0
397 -26 202 0
-397 26 202 0
-397 -26 -202 0
398 27 -203 0
398 -27 203 0
-398 27 203 0
-398 -27 -203 0
399 28 -204 0
399 -28 204 0
-399 28 204 0
-399 -28 -204 0
400 29 -205 0
400 -29 205 0
-400 29 205 0
-400 -29 -205 0
401 30 -206 0
401 -30 206 0
-401 30 206 0
-401 -30 -206 0
402 31 -207 0
402 -31 207 0
-402 31 207 0
-402 -31 -207 0
403 32 -208 0
403 -32 208 0
-403 32 208 0
-403 -32 -208 0
404 388 389 390 391 392 393 394 395 396 397 398 399 400 401 402 403 0
-404 -403 0
-404 -402 0
-404 -401 0
-404 -400 0
-404 -399 0
-404 -398 0
-404 -397 0
-404 -396 0
-404 -395 0
-404 -394 0
-404 -393 0
-404 -392 0
-404 -391 0
-404 -390 0
-404 -389 0
-404 -388 0
405 -209 0
-405 209 0
406 210 -405 0
406 -210 405 0
-406 210 405 0
-406 -210 -405 0
407 -210 -405 0
-407 405 0
-407 210 0
408 -407 0
-408 407 0
409 211 -408 0
409 -211 408 0
-409 211 408 0
-409 -211 -408 0
410 -211 -408 0
-410 408 0
-410 211 0
411 -410 0
-411 410 0
412 212 -411 0
412 -212 411 0
-412 212 411 0
-412 -212 -411 0
413 -212 -411 0
-413 411 0
-413 212 0
414 -413 0
-414 413 0
415 213 -414 0
415 -213 414 0
-415 213 414 0
-415 -213 -414 0
416 -213 -414 0
-416 414 0
-416 213 0
417 -416 0
-417 416 0
418 214 -417 0
418 -214 417 0
-418 214 417 0
-418 -214 -417 0
419 -214 -417 0
-419 417 0
-419 214 0
420 -419 0
-420 419 0
421 215 -420 0
421 -215 420 0
-421 215 420 0
-421 -215 -420 0
422 -215 -420 0
-422 420 0
-422 215 0
423 -422 0
-423 422 0
424 216 -423 0
424 -216 423 0
-424 216 423 0
-424 -216 -423 0
425 -216 -423 0
-425 423 0
-425 216 0
426 -425 0
-426 425 0
427 217 -426 0
427 -217 426 0
-427 217 426 0
-427 -217 -426 0
428 -217 -426 0
-428 426 0
-428 217 0
429 -428 0
-429 428 0
430 218 -429 0
430 -218 429 0
-430 218 429 0
-430 -218 -429 0
431 -218 -429 0
-431 429 0
-431 218 0
432 -431 0
-432 431 0
433 219 -432 0
433 -219 432 0
-433 219 432 0
-433 -219 -432 0
434 -219 -432 0
-434 432 0
-434 219 0
435 -434 0
-435 434 0
436 220 -435 0
436 -220 435 0
-436 220 435 0
-436 -220 -435 0
437 -220 -435 0
-437 435 0
-437 220 0
438 -437 0
-438 437 0
439 221 -438 0
439 -221 438 0
-439 221 438 0
-439 -221 -438 0
440 -221 -438 0
-440 438 0
-440 221 0
441 -440 0
-441 440 0
442 222 -441 0
442 -222 441 0
-442 222 441 0
-442 -222 -441 0
443 -222 -441 0
-443 441 0
-443 222 0
444 -443 0
-444 443 0
445 223 -444 0
445 -223 444 0
-445 223 444 0
-445 -223 -444 0
446 -223 -444 0
-446 444 0
-446 223 0
447 -446 0
-447 446 0
448 224 -447 0
448 -224 447 0
-448 224 447 0
-448 -224 -447 0
449 -224 -447 0
-449 447 0
-449 224 0
450 -449 0
-450 449 0
451 65 209 0
451 -65 -209 0
-451 65 -209 0
-451 -65 209 0
452 66 -406 0
452 -66 406 0
-452 66 406 0
-452 -66 -406 0
453 67 -409 0
453 -67 409 0
-453 67 409 0
-453 -67 -409 0
454 68 -412 0
454 -68 412 0
-454 68 412 0
-454 -68 -412 0
455 69 -415 0
455 -69 415 0
-455 69 415 0
-455 -69 -415 0
456 70 -418 0
456 -70 418 0
-456 70 418 0
-456 -70 -418 0
457 71 -421 0
457 -71 421 0
-457 71 421 0
-457 -71 -421 0
458 72 -424 0
458 -72 424 0
-458 72 424 0
-458 -72 -424 0
459 73 -427 0
459 -73 427 0
-459 73 427 0
-459 -73 -427 0
460 74 -430 0
460 -74 430 0
-460 74 430 0
-460 -74 -430 0
461 75 -433 0
461 -75 433 0
-461 75 433 0
-461 -75 -433 0
462 76 -436 0
462 -76 436 0
-462 76 436 0
-462 -76 -436 0
463 77 -439 0
463 -77 439 0
-463 77 439 0
-463 -77 -439 0
464 78 -442 0
464 -78 442 0
-464 78 442 0
-464 -78 -442 0
465 79 -445 0
465 -79 445 0
-465 79 445 0
-465 -79 -445 0
466 80 -448 0
466 -80 448 0
-466 80 448 0
-466 -80 -448 0
467 451 452 453 454 455 456 457 458 459 460 461 462 463 464 465 466 0
-467 -466 0
-467 -465 0
-467 -464 0
-467 -463 0
-467 -462 0
-467 -461 0
-467 -460 0
-467 -459 0
-467 -458 0
-467 -457 0
-467 -456 0
-467 -455 0
-467 -454 0
-467 -453 0
-467 -452 0
-467 -451 0
468 33 -242 0
468 -33 242 0
-468 33 242 0
-468 -33 -242 0
469 34 -243 0
469 -34 243 0
-469 34 243 0
-469 -34 -243 0
470 35 -244 0
470 -35 244 0
-470 35 244 0
-470 -35 -244 0
471 36 -245 0
471 -36 245 0
-471 36 245 0
-471 -36 -245 0
472 37 -246 0
472 -37 246 0
-472 37 246 0
-472 -37 -246 0
473 38 -247 0
473 -38 247 0
-473 38 247 0
-473 -38 -247 0
474 39 -248 0
474 -39 248 0
-474 39 248 0
-474 -39 -248 0
475 40 -249 0
475 -40 249 0
-475 40 249 0
-475 -40 -249 0
476 41 -250 0
476 -41 250 0
-476 41 250 0
-476 -41 -250 0
477 42 -251 0
477 -42 251 0
-477 42 251 0
-477 -42 -251 0
478 43 -252 0
478 -43 252 0
-478 43 252 0
-478 -43 -252 0
479 44 -253 0
479 -44 253 0
-479 44 253 0
-479 -44 -253 0
480 45 -254 0
480 -45 254 0
-480 45 254 0
-480 -45 -254 0
481 46 -255 0
481 -46 255 0
-481 46 255 0
-481 -46 -255 0
482 47 -256 0
482 -47 256 0
-482 47 256 0
-482 -47 -256 0
483 48 -257 0
483 -48 257 0
-483 48 257 0
-483 -48 -257 0
484 468 469 470 471 472 473 474 475 476 477 478 479 480 481 482 483 0
-484 -483 0
-484 -482 0
-484 -481 0
-484 -480 0
-484 -479 0
-484 -478 0
-484 -477 0
-484 -476 0
-484 -475 0
-484 -474 0
-484 -473 0
-484 -472 0
-484 -471 0
-484 -470 0
-484 -469 0
-484 -468 0
485 81 -258 0
485 -81 258 0
-485 81 258 0
-485 -81 -258 0
486 82 -259 0
486 -82 259 0
-486 82 259 0
-486 -82 -259 0
487 83 -260 0
487 -83 260 0
-487 83 260 0
-487 -83 -260 0
488 84 -261 0
488 -84 261 0
-488 84 261 0
-488 -84 -261 0
489 85 -262 0
489 -85 262 0
-489 85 262 0
-489 -85 -262 0
490 86 -263 0
490 -86 263 0
-490 86 263 0
-490 -86 -263 0
491 87 -264 0
491 -87 264 0
-491 87 264 0
-491 -87 -264 0
492 88 -265 0
492 -88 265 0
-492 88 265 0
-492 -88 -265 0
493 89 -266 0
493 -89 266 0
-493 89 266 0
-493 -89 -266 0
494 90 -267 0
494 -90 267 0
-494 90 267 0
-494 -90 -267 0
495 91 -268 0
495 -91 268 0
-495 91 268 0
-495 -91 -268 0
496 92 -269 0
496 -92 269 0
-496 92 269 0
-496 -92 -269 0
497 93 -270 0
497 -93 270 0
-497 93 270 0
-497 -93 -270 0
498 94 -271 0
498 -94 271 0
-498 94 271 0
-498 -94 -271 0
499 95 -272 0
499 -95 272 0
-499 95 272 0
-499 -95 -272 0
500 96 -273 0
500 -96 273 0
-500 96 273 0
-500 -96 -273 0
501 485 486 487 488 489 490 491 492 493 494 495 496 497 498 499 500 0
-501 -500 0
-501 -499 0
-501 -498 0
-501 -497 0
-501 -496 0
-501 -495 0
-501 -494 0
-501 -493 0
-501 -492 0
-501 -491 0
-501 -490 0
-501 -489 0
-501 -488 0
-501 -487 0
-501 -486 0
-501 -485 0
502 -159 -192 -241 -290 -322 -367 -386 -387 -404 -467 -484 -501 0
-502 501 0
-502 484 0
-502 467 0
-502 404 0
-502 387 0
-502 386 0
-502 367 0
-502 322 0
-502 290 0
-502 241 0
-502 192 0
-502 159 0
535 503 -519 0
-535 -503 0
-535 519 0
536 503 0
536 -519 0
536 -535 0
-536 -503 519 535 0
537 504 -520 0
-537 -504 0
-537 520 0
538 -520 -536 0
-538 536 0
-538 520 0
539 504 -536 0
-539 536 0
-539 -504 0
540 -539 0
540 -538 0
540 -537 0
-540 537 538 539 0
541 505 -521 0
-541 -505 0
-541 521 0
542 -521 -540 0
-542 540 0
-542 521 0
543 505 -540 0
-543 540 0
-543 -505 0
544 -543 0
544 -542 0
544 -541 0
-544 541 542 543 0
545 506 -522 0
-545 -506 0
-545 522 0
546 -522 -544 0
-546 544 0
-546 522 0
547 506 -544 0
-547 544 0
-547 -506 0
548 -547 0
548 -546 0
548 -545 0
-548 545 546 547 0
549 507 -523 0
-549 -507 0
-549 523 0
550 -523 -548 0
-550 548 0
-550 523 0
551 507 -548 0
-551 548 0
-551 -507 0
552 -551 0
552 -550 0
552 -549 0
-552 549 550 551 0
553 508 -524 0
-553 -508 0
-553 524 0
554 -524 -552 0
-554 552 0
-554 524 0
555 508 -552 0
-555 552 0
-555 -508 0
556 -555 0
556 -554 0
556 -553 0
-556 553 554 555 0
557 509 -525 0
-557 -509 0
-557 525 0
558 -525 -556 0
-558 556 0
-558 525 0
559 509 -556 0
-559 556 0
-559 -509 0
560 -559 0
560 -558 0
560 -557 0
-560 557 558 559 0
561 510 -526 0
-561 -510 0
-561 526 0
562 -526 -560 0
-562 560 0
-562 526 0
563 510 -560 0
-563 560 0
-563 -510 0
564 -563 0
564 -562 0
564 -561 0
-564 561 562 563 0
565 511 -527 0
-565 -511 0
-565 527 0
566 -527 -564 0
-566 564 0
-566 527 0
567 511 -564 0
-567 564 0
-567 -511 0
568 -567 0
568 -566 0
568 -565 0
-568 565 566 567 0
569 512 -528 0
-569 -512 0
-569 528 0
570 -528 -568 0
-570 568 0
-570 528 0
571 512 -568 0
-571 568 0
-571 -512 0
572 -571 0
572 -570 0
572 -569 0
-572 569 570 571 0
573 513 -529 0
-573 -513 0
-573 529 0
574 -529 -572 0
-574 572 0
-574 529 0
575 513 -572 0
-575 572 0
-575 -513 0
576 -575 0
576 -574 0
576 -573 0
-576 573 574 575 0
577 514 -530 0
-577 -514 0
-577 530 0
578 -530 -576 0
-578 576 0
-578 530 0
579 514 -576 0
-579 576 0
-579 -514 0
580 -579 0
580 -578 0
580 -577 0
-580 577 578 579 0
581 515 -531 0
-581 -515 0
-581 531 0
582 -531 -580 0
-582 580 0
-582 531 0
583 515 -580 0
-583 580 0
-583 -515 0
584 -583 0
584 -582 0
584 -581 0
-584 581 582 583 0
585 516 -532 0
-585 -516 0
-585 532 0
586 -532 -584 0
-586 584 0
-586 532 0
587 516 -584 0
-587 584 0
-587 -516 0
588 -587 0
588 -586 0
588 -585 0
-588 585 586 587 0
589 517 -533 0
-589 -517 0
-589 533 0
590 -533 -588 0
-590 588 0
-590 533 0
591 517 -588 0
-591 588 0
-591 -517 0
592 -591 0
592 -590 0
592 -589 0
-592 589 590 591 0
593 518 -534 0
-593 -518 0
-593 534 0
594 -534 -592 0
-594 592 0
-594 534 0
595 518 -592 0
-595 592 0
-595 -518 0
596 -595 0
596 -594 0
596 -593 0
-596 593 594 595 0
597 -518 534 0
597 518 -534 0
-597 518 534 0
-597 -518 -534 0
598 -596 -597 0
598 596 597 0
-598 596 -597 0
-598 -596 597 0
600 0
-600 -598 -599 0
633 601 -617 0
-633 -601 0
-633 617 0
634 601 0
634 -617 0
634 -633 0
-634 -601 617 633 0
635 602 -618 0
-635 -602 0
-635 618 0
636 -618 -634 0
-636 634 0
-636 618 0
637 602 -634 0
-637 634 0
-637 -602 0
638 -637 0
638 -636 0
638 -635 0
-638 635 636 637 0
639 603 -619 0
-639 -603 0
-639 619 0
640 -619 -638 0
-640 638 0
-640 619 0
641 603 -638 0
-641 638 0
-641 -603 0
642 -641 0
642 -640 0
642 -639 0
-642 639 640 641 0
643 604 -620 0
-643 -604 0
-643 620 0
644 -620 -642 0
-644 642 0
-644 620 0
645 604 -642 0
-645 642 0
-645 -604 0
646 -645 0
646 -644 0
646 -643 0
-646 643 644 645 0
647 605 -621 0
-647 -605 0
-647 621 0
648 -621 -646 0
-648 646 0
-648 621 0
649 605 -646 0
-649 646 0
-649 -605 0
650 -649 0
650 -648 0
650 -647 0
-650 647 648 649 0
651 606 -622 0
-651 -606 0
-651 622 0
652 -622 -650 0
-652 650 0
-652 622 0
653 606 -650 0
-653 650 0
-653 -606 0
654 -653 0
654 -652 0
654 -651 0
-654 651 652 653 0
655 607 -623 0
-655 -607 0
-655 623 0
656 -623 -654 0
-656 654 0
-656 623 0
657 607 -654 0
-657 654 0
-657 -607 0
658 -657 0
658 -656 0
658 -655 0
-658 655 656 657 0
659 608 -624 0
-659 -608 0
-659 624 0
660 -624 -658 0
-660 658 0
-660 624 0
661 608 -658 0
-661 658 0
-661 -608 0
662 -661 0
662 -660 0
662 -659 0
-662 659 660 661 0
663 609 -625 0
-663 -609 0
-663 625 0
664 -625 -662 0
-664 662 0
-664 625 0
665 609 -662 0
-665 662 0
-665 -609 0
666 -665 0
666 -664 0
666 -663 0
-666 663 664 665 0
667 610 -626 0
-667 -610 0
-667 626 0
668 -626 -666 0
-668 666 0
-668 626 0
669 610 -666 0
-669 666 0
-669 -610 0
670 -669 0
670 -668 0
670 -667 0
-670 667 668 669 0
671 611 -627 0
-671 -611 0
-671 627 0
672 -627 -670 0
-672 670 0
-672 627 0
673 611 -670 0
-673 670 0
-673 -611 0
674 -673 0
674 -672 0
674 -671 0
-674 671 672 673 0
675 612 -628 0
-675 -612 0
-675 628 0
676 -628 -674 0
-676 674 0
-676 628 0
677 612 -674 0
-677 674 0
-677 -612 0
678 -677 0
678 -676 0
678 -675 0
-678 675 676 677 0
679 613 -629 0
-679 -613 0
-679 629 0
680 -629 -678 0
-680 678 0
-680 629 0
681 613 -678 0
-681 678 0
-681 -613 0
682 -681 0
682 -680 0
682 -679 0
-682 679 680 681 0
683 614 -630 0
-683 -614 0
-683 630 0
684 -630 -682 0
-684 682 0
-684 630 0
685 614 -682 0
-685 682 0
-685 -614 0
686 -685 0
686 -684 0
686 -683 0
-686 683 684 685 0
687 615 -631 0
-687 -615 0
-687 631 0
688 -631 -686 0
-688 686 0
-688 631 0
689 615 -686 0
-689 686 0
-689 -615 0
690 -689 0
690 -688 0
690 -687 0
-690 687 688 689 0
691 616 -632 0
-691 -616 0
-691 632 0
692 -632 -690 0
-692 690 0
-692 632 0
693 616 -690 0
-693 690 0
-693 -616 0
694 -693 0
694 -692 0
694 -691 0
-694 691 692 693 0
695 -616 632 0
695 616 -632 0
-695 616 632 0
-695 -616 -632 0
696 -694 -695 0
696 694 695 0
-696 694 -695 0
-696 -694 695 0
698 0
-698 -696 -697 0
731 699 -715 0
-731 -699 0
-731 715 0
732 699 0
732 -715 0
732 -731 0
-732 -699 715 731 0
733 700 -716 0
-733 -700 0
-733 716 0
734 -716 -732 0
-734 732 0
-734 716 0
735 700 -732 0
-735 732 0
-735 -700 0
736 -735 0
736 -734 0
736 -733 0
-736 733 734 735 0
737 701 -717 0
-737 -701 0
-737 717 0
738 -717 -736 0
-738 736 0
-738 717 0
739 701 -736 0
-739 736 0
-739 -701 0
740 -739 0
740 -738 0
740 -737 0
-740 737 738 739 0
741 702 -718 0
-741 -702 0
-741 718 0
742 -718 -740 0
-742 740 0
-742 718 0
743 702 -740 0
-743 740 0
-743 -702 0
744 -743 0
744 -742 0
744 -741 0
-744 741 742 743 0
745 703 -719 0
-745 -703 0
-745 719 0
746 -719 -744 0
-746 744 0
-746 719 0
747 703 -744 0
-747 744 0
-747 -703 0
748 -747 0
748 -746 0
748 -745 0
-748 745 746 747 0
749 704 -720 0
-749 -704 0
-749 720 0
750 -720 -748 0
-750 748 0
-750 720 0
751 704 -748 0
-751 748 0
-751 -704 0
752 -751 0
752 -750 0
752 -749 0
-752 749 750 751 0
753 705 -721 0
-753 -705 0
-753 721 0
754 -721 -752 0
-754 752 0
-754 721 0
755 705 -752 0
-755 752 0
-755 -705 0
756 -755 0
756 -754 0
756 -753 0
-756 753 754 755 0
757 706 -722 0
-757 -706 0
-757 722 0
758 -722 -756 0
-758 756 0
-758 722 0
759 706 -756 0
-759 756 0
-759 -706 0
760 -759 0
760 -758 0
760 -757 0
-760 757 758 759 0
761 707 -723 0
-761 -707 0
-761 723 0
762 -723 -760 0
-762 760 0
-762 723 0
763 707 -760 0
-763 760 0
-763 -707 0
764 -763 0
764 -762 0
764 -761 0
-764 761 762 763 0
765 708 -724 0
-765 -708 0
-765 724 0
766 -724 -764 0
-766 764 0
-766 724 0
767 708 -764 0
-767 764 0
-767 -708 0
768 -767 0
768 -766 0
768 -765 0
-768 765 766 767 0
769 709 -725 0
-769 -709 0
-769 725 0
770 -725 -768 0
-770 768 0
-770 725 0
771 709 -768 0
-771 768 0
-771 -709 0
772 -771 0
772 -770 0
772 -769 0
-772 769 770 771 0
773 710 -726 0
-773 -710 0
-773 726 0
774 -726 -772 0
-774 772 0
-774 726 0
775 710 -772 0
-775 772 0
-775 -710 0
776 -775 0
776 -774 0
776 -773 0
-776 773 774 775 0
777 711 -727 0
-777 -711 0
-777 727 0
778 -727 -776 0
-778 776 0
-778 727 0
779 711 -776 0
-779 776 0
-779 -711 0
780 -779 0
780 -778 0
780 -777 0
-780 777 778 779 0
781 712 -728 0
-781 -712 0
-781 728 0
782 -728 -780 0
-782 780 0
-782 728 0
783 712 -780 0
-783 780 0
-783 -712 0
784 -783 0
784 -782 0
784 -781 0
-784 781 782 783 0
785 713 -729 0
-785 -713 0
-785 729 0
786 -729 -784 0
-786 784 0
-786 729 0
787 713 -784 0
-787 784 0
-787 -713 0
788 -787 0
788 -786 0
788 -785 0
-788 785 786 787 0
789 714 -730 0
-789 -714 0
-789 730 0
790 -730 -788 0
-790 788 0
-790 730 0
791 714 -788 0
-791 788 0
-791 -714 0
792 -791 0
792 -790 0
792 -789 0
-792 789 790 791 0
793 -714 730 0
793 714 -730 0
-793 714 730 0
-793 -714 -730 0
794 -792 -793 0
794 792 793 0
-794 792 -793 0
-794 -792 793 0
796 0
-796 -794 -795 0
797 -502 0
797 -598 -696 -794 0
-797 794 0
-797 696 0
-797 598 0
798 1 -49 0
798 -1 49 0
-798 1 49 0
-798 -1 -49 0
799 2 -50 0
799 -2 50 0
-799 2 50 0
-799 -2 -50 0
800 3 -51 0
800 -3 51 0
-800 3 51 0
-800 -3 -51 0
801 4 -52 0
801 -4 52 0
-801 4 52 0
-801 -4 -52 0
802 5 -53 0
802 -5 53 0
-802 5 53 0
-802 -5 -53 0
803 6 -54 0
803 -6 54 0
-803 6 54 0
-803 -6 -54 0
804 7 -55 0
804 -7 55 0
-804 7 55 0
-804 -7 -55 0
805 8 -56 0
805 -8 56 0
-805 8 56 0
-805 -8 -56 0
806 9 -57 0
806 -9 57 0
-806 9 57 0
-806 -9 -57 0
807 10 -58 0
807 -10 58 0
-807 10 58 0
-807 -10 -58 0
808 11 -59 0
808 -11 59 0
-808 11 59 0
-808 -11 -59 0
809 12 -60 0
809 -12 60 0
-809 12 60 0
-809 -12 -60 0
810 13 -61 0
810 -13 61 0
-810 13 61 0
-810 -13 -61 0
811 14 -62 0
811 -14 62 0
-811 14 62 0
-811 -14 -62 0
812 15 -63 0
812 -15 63 0
-812 15 63 0
-812 -15 -63 0
813 16 -64 0
813 -16 64 0
-813 16 64 0
-813 -16 -64 0
814 798 799 800 801 802 803 804 805 806 807 808 809 810 811 812 813 0
-814 -813 0
-814 -812 0
-814 -811 0
-814 -810 0
-814 -809 0
-814 -808 0
-814 -807 0
-814 -806 0
-814 -805 0
-814 -804 0
-814 -803 0
-814 -802 0
-814 -801 0
-814 -800 0
-814 -799 0
-814 -798 0
815 503 -519 0
815 -503 519 0
-815 503 519 0
-815 -503 -519 0
816 504 -520 0
816 -504 520 0
-816 504 520 0
-816 -504 -520 0
817 505 -521 0
817 -505 521 0
-817 505 521 0
-817 -505 -521 0
818 506 -522 0
818 -506 522 0
-818 506 522 0
-818 -506 -522 0
819 507 -523 0
819 -507 523 0
-819 507 523 0
-819 -507 -523 0
820 508 -524 0
820 -508 524 0
-820 508 524 0
-820 -508 -524 0
821 509 -525 0
821 -509 525 0
-821 509 525 0
-821 -509 -525 0
822 510 -526 0
822 -510 526 0
-822 510 526 0
-822 -510 -526 0
823 511 -527 0
823 -511 527 0
-823 511 527 0
-823 -511 -527 0
824 512 -528 0
824 -512 528 0
-824 512 528 0
-824 -512 -528 0
825 513 -529 0
825 -513 529 0
-825 513 529 0
-825 -513 -529 0
826 514 -530 0
826 -514 530 0
-826 514 530 0
-826 -514 -530 0
827 515 -531 0
827 -515 531 0
-827 515 531 0
-827 -515 -531 0
828 516 -532 0
828 -516 532 0
-828 516 532 0
-828 -516 -532 0
829 517 -533 0
829 -517 533 0
-829 517 533 0
-829 -517 -533 0
830 518 -534 0
830 -518 534 0
-830 518 534 0
-830 -518 -534 0
831 -814 0
831 815 816 817 818 819 820 821 822 823 824 825 826 827 828 829 830 0
-831 -830 0
-831 -829 0
-831 -828 0
-831 -827 0
-831 -826 0
-831 -825 0
-831 -824 0
-831 -823 0
-831 -822 0
-831 -821 0
-831 -820 0
-831 -819 0
-831 -818 0
-831 -817 0
-831 -816 0
-831 -815 0
832 17 -65 0
832 -17 65 0
-832 17 65 0
-832 -17 -65 0
833 18 -66 0
833 -18 66 0
-833 18 66 0
-833 -18 -66 0
834 19 -67 0
834 -19 67 0
-834 19 67 0
-834 -19 -67 0
835 20 -68 0
835 -20 68 0
-835 20 68 0
-835 -20 -68 0
836 21 -69 0
836 -21 69 0
-836 21 69 0
-836 -21 -69 0
837 22 -70 0
837 -22 70 0
-837 22 70 0
-837 -22 -70 0
838 23 -71 0
838 -23 71 0
-838 23 71 0
-838 -23 -71 0
839 24 -72 0
839 -24 72 0
-839 24 72 0
-839 -24 -72 0
840 25 -73 0
840 -25 73 0
-840 25 73 0
-840 -25 -73 0
841 26 -74 0
841 -26 74 0
-841 26 74 0
-841 -26 -74 0
842 27 -75 0
842 -27 75 0
-842 27 75 0
-842 -27 -75 0
843 28 -76 0
843 -28 76 0
-843 28 76 0
-843 -28 -76 0
844 29 -77 0
844 -29 77 0
-844 29 77 0
-844 -29 -77 0
845 30 -78 0
845 -30 78 0
-845 30 78 0
-845 -30 -78 0
846 31 -79 0
846 -31 79 0
-846 31 79 0
-846 -31 -79 0
847 32 -80 0
847 -32 80 0
-847 32 80 0
-847 -32 -80 0
848 832 833 834 835 836 837 838 839 840 841 842 843 844 845 846 847 0
-848 -847 0
-848 -846 0
-848 -845 0
-848 -844 0
-848 -843 0
-848 -842 0
-848 -841 0
-848 -840 0
-848 -839 0
-848 -838 0
-848 -837 0
-848 -836 0
-848 -835 0
-848 -834 0
-848 -833 0
-848 -832 0
849 601 -617 0
849 -601 617 0
-849 601 617 0
-849 -601 -617 0
850 602 -618 0
850 -602 618 0
-850 602 618 0
-850 -602 -618 0
851 603 -619 0
851 -603 619 0
-851 603 619 0
-851 -603 -619 0
852 604 -620 0
852 -604 620 0
-852 604 620 0
-852 -604 -620 0
853 605 -621 0
853 -605 621 0
-853 605 621 0
-853 -605 -621 0
854 606 -622 0
854 -606 622 0
-854 606 622 0
-854 -606 -622 0
855 607 -623 0
855 -607 623 0
-855 607 623 0
-855 -607 -623 0
856 608 -624 0
856 -608 624 0
-856 608 624 0
-856 -608 -624 0
857 609 -625 0
857 -609 625 0
-857 609 625 0
-857 -609 -625 0
858 610 -626 0
858 -610 626 0
-858 610 626 0
-858 -610 -626 0
859 611 -627 0
859 -611 627 0
-859 611 627 0
-859 -611 -627 0
860 612 -628 0
860 -612 628 0
-860 612 628 0
-860 -612 -628 0
861 613 -629 0
861 -613 629 0
-861 613 629 0
-861 -613 -629 0
862 614 -630 0
862 -614 630 0
-862 614 630 0
-862 -614 -630 0
863 615 -631 0
863 -615 631 0
-863 615 631 0
-863 -615 -631 0
864 616 -632 0
864 -616 632 0
-864 616 632 0
-864 -616 -632 0
865 -848 0
865 849 850 851 852 853 854 855 856 857 858 859 860 861 862 863 864 0
-865 -864 0
-865 -863 0
-865 -862 0
-865 -861 0
-865 -860 0
-865 -859 0
-865 -858 0
-865 -857 0
-865 -856 0
-865 -855 0
-865 -854 0
-865 -853 0
-865 -852 0
-865 -851 0
-865 -850 0
-865 -849 0
866 33 -81 0
866 -33 81 0
-866 33 81 0
-866 -33 -81 0
867 34 -82 0
867 -34 82 0
-867 34 82 0
-867 -34 -82 0
868 35 -83 0
868 -35 83 0
-868 35 83 0
-868 -35 -83 0
869 36 -84 0
869 -36 84 0
-869 36 84 0
-869 -36 -84 0
870 37 -85 0
870 -37 85 0
-870 37 85 0
-870 -37 -85 0
871 38 -86 0
871 -38 86 0
-871 38 86 0
-871 -38 -86 0
872 39 -87 0
872 -39 87 0
-872 39 87 0
-872 -39 -87 0
873 40 -88 0
873 -40 88 0
-873 40 88 0
-873 -40 -88 0
874 41 -89 0
874 -41 89 0
-874 41 89 0
-874 -41 -89 0
875 42 -90 0
875 -42 90 0
-875 42 90 0
-875 -42 -90 0
876 43 -91 0
876 -43 91 0
-876 43 91 0
-876 -43 -91 0
877 44 -92 0
877 -44 92 0
-877 44 92 0
-877 -44 -92 0
878 45 -93 0
878 -45 93 0
-878 45 93 0
-878 -45 -93 0
879 46 -94 0
879 -46 94 0
-879 46 94 0
-879 -46 -94 0
880 47 -95 0
880 -47 95 0
-880 47 95 0
-880 -47 -95 0
881 48 -96 0
881 -48 96 0
-881 48 96 0
-881 -48 -96 0
882 866 867 868 869 870 871 872 873 874 875 876 877 878 879 880 881 0
-882 -881 0
-882 -880 0
-882 -879 0
-882 -878 0
-882 -877 0
-882 -876 0
-882 -875 0
-882 -874 0
-882 -873 0
-882 -872 0
-882 -871 0
-882 -870 0
-882 -869 0
-882 -868 0
-882 -867 0
-882 -866 0
883 699 -715 0
883 -699 715 0
-883 699 715 0
-883 -699 -715 0
884 700 -716 0
884 -700 716 0
-884 700 716 0
-884 -700 -716 0
885 701 -717 0
885 -701 717 0
-885 701 717 0
-885 -701 -717 0
886 702 -718 0
886 -702 718 0
-886 702 718 0
-886 -702 -718 0
887 703 -719 0
887 -703 719 0
-887 703 719 0
-887 -703 -719 0
888 704 -720 0
888 -704 720 0
-888 704 720 0
-888 -704 -720 0
889 705 -721 0
889 -705 721 0
-889 705 721 0
-889 -705 -721 0
890 706 -722 0
890 -706 722 0
-890 706 722 0
-890 -706 -722 0
891 707 -723 0
891 -707 723 0
-891 707 723 0
-891 -707 -723 0
892 708 -724 0
892 -708 724 0
-892 708 724 0
-892 -708 -724 0
893 709 -725 0
893 -709 725 0
-893 709 725 0
-893 -709 -725 0
894 710 -726 0
894 -710 726 0
-894 710 726 0
-894 -710 -726 0
895 711 -727 0
895 -711 727 0
-895 711 727 0
-895 -711 -727 0
896 712 -728 0
896 -712 728 0
-896 712 728 0
-896 -712 -728 0
897 713 -729 0
897 -713 729 0
-897 713 729 0
-897 -713 -729 0
898 714 -730 0
898 -714 730 0
-898 714 730 0
-898 -714 -730 0
899 -882 0
899 883 884 885 886 887 888 889 890 891 892 893 894 895 896 897 898 0
-899 -898 0
-899 -897 0
-899 -896 0
-899 -895 0
-899 -894 0
-899 -893 0
-899 -892 0
-899 -891 0
-899 -890 0
-899 -889 0
-899 -888 0
-899 -887 0
-899 -886 0
-899 -885 0
-899 -884 0
-899 -883 0
